NAME : random_18
COMMENT : 30 random nodes
TYPE : TSP
DIMENSION : 30
EDGE_WEIGHT_TYPE : EUC_2D
NODE_COORD_SECTION
1 -1147 3267
2 4169 -1251
3 4364 4282
4 2924 1784
5 587 80
6 -2582 22
7 -1462 2629
8 -1786 3924
9 -652 -1974
10 3554 141
11 -2510 204
12 1093 -203
13 -1435 4054
14 1138 2377
15 2092 -1425
16 -2251 -1415
17 18 4296
18 3336 1535
19 3735 2326
20 -468 -1344
21 2765 -852
22 1385 4427
23 -1639 2820
24 -1984 1615
25 1173 -2203
26 3885 -1280
27 645 1057
28 1635 -2257
29 1071 4441
30 1784 -1344
EOF